Route #1: 18 29 2 6 27 5 19 48
Route #2: 41 32 31 17 15 43 40 30 22 39 20 33
Route #3: 1 49 37 28 8 36 7 12 25 4 14 23 47 50 42 44 24 34 38 46 11 9
Route #4: 35 3 45 26 21 10 13
Route #5: 16
Route #6: 
Route #7: 
Route #8: 
cost 1640.3138564056082
